(set-logic QF_LIA)
(set-info :ran/ran2.smt2)
(set-info :smt-lib-version 2.0)
(declare-fun x1 () Int)
(declare-fun x2 () Int)
(declare-fun x3 () Int)
(assert (<= (+ (* (- 1) x1) (* (- 4) x2) (* 9 x3) ) 384))
(assert (<= (+ (* 7 x1) (* (- 2) x2) (* (- 4) x3) ) (- 523)))
(assert (<= (+ (* 10 x1) (* (- 8) x2) (* 9 x3) ) 256))
(assert (<= (+ (* (- 10) x1) (* 5 x2) (* 7 x3) ) (- 670)))
(assert (<= (+ (* (- 3) x1) (* 6 x2) (* 0 x3) ) 676))
(assert (<= (+ (* 2 x1) (* 4 x2) (* 5 x3) ) 349))
(assert (<= (+ (* 1 x1) (* 0 x2) (* 0 x3) ) 707))
(assert (<= (+ (* (- 1) x1) (* 0 x2) (* 0 x3) ) 707))
(assert (<= (+ (* 0 x1) (* 1 x2) (* 0 x3) ) 707))
(assert (<= (+ (* 0 x1) (* (- 1) x2) (* 0 x3) ) 707))
(assert (<= (+ (* 0 x1) (* 0 x2) (* 1 x3) ) 707))
(assert (<= (+ (* 0 x1) (* 0 x2) (* (- 1) x3) ) 707))
